&control
 year0        = 2003
 year1	      = 2003
 irestart     = 0
 day0         = 1
 nspin        = 1
 intime       = 1
 inkind       = 3
 trans        = 0
 dtime        = 60
 dayint       = 25
 outtime      = 1
 grdwid       = 2.0
 lonw         = -180.0
 lone         = 180.0
 latn         = 85.5
 lats         = -80.0
 wetflg       = 0
 rflg         = 0
 wiflg        = 0
 vflg         = 0
 param_file   = './control_bethy/73_paramslist_new'
 mapping_file_global = './control_bethy/hires_28params.map'
 datfile      = './control_bethy/gv41_data'
 grid_file    = './control_bethy/bethy_grid3veg_v2.nc'
 interp_file  = './control_bethy/bethy2tm.nc'
 faparfile    = 'fapar_redres_'
 faparfile_global    = 'fapar_hires.nc'
 yearin0      = 1979
 yearin1      = 2008
 dprecip_file = './inputs/climate/forcing.hires.precip.1979-2008.nc'
 dtmax_file   = './inputs/climate/forcing.hires.tmax.1979-2008.nc'
 dtmin_file   = './inputs/climate/forcing.hires.tmin.1979-2008.nc'
 dswdown_file = './inputs/climate/forcing.hires.swdown.1979-2008.nc'
 dummyfluxes  = './inputs/co2fluxes.dat'
 jacdir       = './inputs/jactd/'
 datdir       = './inputs/gv08/'
 bgrdir       = './inputs/background/'
 outdir       = 'output/'
 year0_site   = 2000
 year1_site   = 2003
 site_file    = './control_bethy/no_sites'	
 mapping_file_site = './control_bethy/site_specs.dat.map'
 optpftg      = .false.
 optpftl      = .false.
 optbsmg      = .false.
 optbsml      = .false.
 p1start      = 1
 p1end        = 5
 p2start      = 16
 p2end        = 20
/
