&control
 year0        = 2005
 year1	      = 2005
 irestart     = 0
 day0         = 1
 nspin        = 1
 intime       = 1
 inkind       = 3
 trans        = 0
 dtime        = 60
 dayint       = 32
 outtime      = 1
 grdwid       = 10.0
 lonw         = -180.0
 lone         = 180.0
 latn         = 85.5
 lats         = -80.0
 wetflg       = 0
 rflg         = 0
 wiflg        = 0
 vflg         = 0
 param_file   = './control_bethy/118_scope_paramslist'
 mapping_file_global = './control_bethy/lores_28params.map'
 datfile      = './control_bethy/no_stations'
 grid_file    = './control_bethy/bethy_loresgrid3veg_v2.nc'
 interp_file  = './control_bethy/tm2tm.nc'
 faparfile    = 'fapar_redres_'
 faparfile_global    = 'fapar_lores.nc'
 yearin0      = 1979
 yearin1      = 2005
 dprecip_file = './input/climate/forcing.lores.precip.1979-2005.nc'
 dtmax_file   = './input/climate/forcing.lores.tmax.1979-2005.nc'
 dtmin_file   = './input/climate/forcing.lores.tmin.1979-2005.nc'
 dswdown_file = './input/climate/forcing.lores.swdown.1979-2005.nc'
 dummyfluxes  = './input/co2fluxes.dat'
 jacdir       = './input/jactd/'
 datdir       = './input/gv04/'
 bgrdir       = './input/background/'
 outdir       = 'output/'
 year0_site   = 2015
 year1_site   = 2015
 site_file    = './control_bethy/site_specs_US-NR1.dat'	
 mapping_file_site = './control_bethy/site_specs_US-NR1_scope.dat.map'
 site_file_lai = './input/eddy_sites/lai.US-NR1.constant.txt'
 siteforceflag = .true.
 optpftg      = .false.
 optpftl      = .false.
 optbsmg      = .false.
 optbsml      = .false.
 p1start      = 1
 p1end        = 5
 p2start      = 16
 p2end        = 20
/
